#######################################
### Exact MIP solver for the HHCRSP ###
#######################################
-- Instance file: new-instances/HHCRSP_300_60_96_1.6_C_C.txt
-- Max threads: 4
-- Time limit: 999999 seconds
-- Use initial solution: No
Trivial flow violations prevented generating 1148737 variables.
Version identifier: 20.1.0.0 | 2020-11-10 | 9bedb6d68
CPXPARAM_Threads                                 4
CPXPARAM_TimeLimit                               999999
Parallel mode: deterministic, using up to 4 threads for concurrent optimization:
 * Starting dual Simplex on 1 thread...
 * Starting Barrier on 3 threads...
Tried aggregator 1 time.
LP Presolve eliminated 47058 rows and 11132 columns.
Reduced LP has 1309950 rows, 1245588 columns, and 29620919 nonzeros.
Presolve time = 33.96 sec. (6531.28 ticks)
Symmetry aggregator did 2148175 additional substitutions.

Iteration log . . .
Iteration:     1   Dual objective     =             0.000000
Iteration:  1372   Dual objective     =           252.000000

Dual crossover.
  Dual:  Fixing 1471 variables.
     1470 DMoves:  Infeasibility  1.85290673e-12  Objective  2.53666667e+02
        0 DMoves:  Infeasibility  1.79048444e-12  Objective  2.53666667e+02
  Dual:  Pushed 16, exchanged 1455.
  Primal:  Fixing 1462 variables.
     1461 PMoves:  Infeasibility  1.69948691e-15  Objective  2.53666667e+02
        0 PMoves:  Infeasibility  1.82986222e-15  Objective  2.53666667e+02
  Primal:  Pushed 1288, exchanged 174.

Dual simplex solved model.


Solution status from MIP model:
-- Processing time: 55.752 sec.
-- Memory used: 1189.37 MB
-- Best bound: inf
-- Obj value: 253.667
-- Gap: inf%
-- Total distance: 761
-- Total tardiness: 0
-- Largest tardiness: 0
